
     Program PWSCF v.7.5 starts on  4Oct2026 at  1: 8: 6 

     This program is part of the open-source Quantum ESPRESSO suite
     for quantum simulation of materials; please cite
         "P. Giannozzi et al., J. Phys.:Condens. Matter 21 395502 (2009);
         "P. Giannozzi et al., J. Phys.:Condens. Matter 29 465901 (2017);
         "P. Giannozzi et al., J. Chem. Phys. 152 154105 (2020);
          URL http://www.quantum-espresso.org", 
     in publications or presentations arising from this work. More details at
     http://www.quantum-espresso.org/quote

     Parallel version (MPI & OpenMP), running on       4 processor cores
     Number of MPI processes:                 4
     Threads/MPI process:                     1

     MPI processes distributed on     1 nodes
     235847 MiB available memory on the printing compute node when the environment starts

     Reading input from nscf.in

     Current dimensions of program PWSCF are:
     Max number of different atomic species (ntypx) = 10
     Max number of k-points (npk) =  40000
     Max angular momentum in pseudopotentials (lmaxx) =  4

     Atomic positions and unit cell read from directory:
     ./pb.save/


     R & G space division:  proc/nbgrp/npool/nimage =       4
     Subspace diagonalization in iterative solution of the eigenvalue problem:
     a serial algorithm will be used


     Parallelization info
     --------------------
     sticks:   dense  smooth     PW     G-vecs:    dense   smooth      PW
     Min         175     175     52                 3095     3095     526
     Max         176     176     53                 3098     3098     529
     Sum         703     703    211                12387    12387    2109

     Using Slab Decomposition



     bravais-lattice index     =            2
     lattice parameter (alat)  =       9.2700  a.u.
     unit-cell volume          =     199.1495 (a.u.)^3
     number of atoms/cell      =            1
     number of atomic types    =            1
     number of electrons       =        14.00
     number of Kohn-Sham states=           11
     kinetic-energy cutoff     =      60.0000  Ry
     charge density cutoff     =     240.0000  Ry
     Exchange-correlation= PZ
                           (   1   1   0   0   0   0   0)

     celldm(1)=   9.270000  celldm(2)=   0.000000  celldm(3)=   0.000000
     celldm(4)=   0.000000  celldm(5)=   0.000000  celldm(6)=   0.000000

     crystal axes: (cart. coord. in units of alat)
               a(1) = (  -0.500000   0.000000   0.500000 )  
               a(2) = (   0.000000   0.500000   0.500000 )  
               a(3) = (  -0.500000   0.500000   0.000000 )  

     reciprocal axes: (cart. coord. in units 2 pi/alat)
               b(1) = ( -1.000000 -1.000000  1.000000 )  
               b(2) = (  1.000000  1.000000  1.000000 )  
               b(3) = ( -1.000000  1.000000 -1.000000 )  


     PseudoPot. # 1 for Pb read from file:
     ./pb_s.UPF
     MD5 check sum: 7774f596943a2055f0d8d19eea6f2ae8
     Pseudo is Norm-conserving, Zval = 14.0
     Generated using "atomic" code by A. Dal Corso  (Quantum ESPRESSO distribution)
     Using radial grid of 1281 points,  2 beta functions with: 
                l(1) =   2
                l(2) =   1

     atomic species   valence    mass     pseudopotential
     Pb               14.00   207.20000     Pb( 1.00)

     48 Sym. Ops., with inversion, found



   Cartesian axes

     site n.     atom                  positions (alat units)
         1        Pb     tau(   1) = (   0.0000000   0.0000000   0.0000000  )

     number of k points=    27  Methfessel-Paxton smearing, width (Ry)=  0.0200
                       cart. coord. in units 2pi/alat
        k(    1) = (   0.0000000   0.0000000   0.0000000), wk =   0.0740741
        k(    2) = (  -0.3333333   0.3333333  -0.3333333), wk =   0.0740741
        k(    3) = (  -0.6666667   0.6666667  -0.6666667), wk =   0.0740741
        k(    4) = (   0.3333333   0.3333333   0.3333333), wk =   0.0740741
        k(    5) = (   0.0000000   0.6666667   0.0000000), wk =   0.0740741
        k(    6) = (  -0.3333333   1.0000000  -0.3333333), wk =   0.0740741
        k(    7) = (   0.6666667   0.6666667   0.6666667), wk =   0.0740741
        k(    8) = (   0.3333333   1.0000000   0.3333333), wk =   0.0740741
        k(    9) = (   0.0000000   1.3333333   0.0000000), wk =   0.0740741
        k(   10) = (  -0.3333333  -0.3333333   0.3333333), wk =   0.0740741
        k(   11) = (  -0.6666667   0.0000000   0.0000000), wk =   0.0740741
        k(   12) = (  -1.0000000   0.3333333  -0.3333333), wk =   0.0740741
        k(   13) = (   0.0000000   0.0000000   0.6666667), wk =   0.0740741
        k(   14) = (  -0.3333333   0.3333333   0.3333333), wk =   0.0740741
        k(   15) = (  -0.6666667   0.6666667  -0.0000000), wk =   0.0740741
        k(   16) = (   0.3333333   0.3333333   1.0000000), wk =   0.0740741
        k(   17) = (   0.0000000   0.6666667   0.6666667), wk =   0.0740741
        k(   18) = (  -0.3333333   1.0000000   0.3333333), wk =   0.0740741
        k(   19) = (  -0.6666667  -0.6666667   0.6666667), wk =   0.0740741
        k(   20) = (  -1.0000000  -0.3333333   0.3333333), wk =   0.0740741
        k(   21) = (  -1.3333333   0.0000000   0.0000000), wk =   0.0740741
        k(   22) = (  -0.3333333  -0.3333333   1.0000000), wk =   0.0740741
        k(   23) = (  -0.6666667  -0.0000000   0.6666667), wk =   0.0740741
        k(   24) = (  -1.0000000   0.3333333   0.3333333), wk =   0.0740741
        k(   25) = (   0.0000000   0.0000000   1.3333333), wk =   0.0740741
        k(   26) = (  -0.3333333   0.3333333   1.0000000), wk =   0.0740741
        k(   27) = (  -0.6666667   0.6666667   0.6666667), wk =   0.0740741

     Dense  grid:    12387 G-vectors     FFT dimensions: (  36,  36,  36)

     Estimated max dynamical RAM per process >       1.77 MB

     Estimated total dynamical RAM >       7.09 MB

     The potential is recalculated from file :
     ./pb.save/charge-density

     Starting wfcs are    9 randomized atomic wfcs +    2 random wfcs

     Band Structure Calculation
     Davidson diagonalization with overlap

     ethr =  7.14E-13,  avg # of iterations = 30.7

     total cpu time spent up to now is        1.9 secs

     End of band structure calculation

          k = 0.0000 0.0000 0.0000 (  1471 PWs)   bands (ev):

    -5.5635  -5.5635  -5.5635  -5.4022  -5.4022  -0.5737  18.6327  18.6327
    18.6327  21.9477  22.9972

          k =-0.3333 0.3333-0.3333 (  1540 PWs)   bands (ev):

    -5.5864  -5.5317  -5.5317  -5.3154  -5.3154   1.5754   9.7460  17.2082
    17.2082  20.8948  22.5624

          k =-0.6667 0.6667-0.6667 (  1540 PWs)   bands (ev):

    -5.5864  -5.5317  -5.5317  -5.3154  -5.3154   1.5754   9.7460  17.2082
    17.2082  20.8948  22.5624

          k = 0.3333 0.3333 0.3333 (  1540 PWs)   bands (ev):

    -5.5864  -5.5317  -5.5317  -5.3154  -5.3154   1.5754   9.7460  17.2082
    17.2082  20.8948  22.5624

          k = 0.0000 0.6667 0.0000 (  1580 PWs)   bands (ev):

    -5.7000  -5.5748  -5.3123  -5.3123  -5.3002   2.2921  11.2650  14.2103
    14.2103  18.1260  18.9957

          k =-0.3333 1.0000-0.3333 (  1568 PWs)   bands (ev):

    -5.6238  -5.4488  -5.4004  -5.3676  -5.3022   4.1691   9.4624   9.7032
    14.9408  18.7583  25.8659

          k = 0.6667 0.6667 0.6667 (  1540 PWs)   bands (ev):

    -5.5864  -5.5317  -5.5317  -5.3154  -5.3154   1.5754   9.7460  17.2082
    17.2082  20.8948  22.5624

          k = 0.3333 1.0000 0.3333 (  1568 PWs)   bands (ev):

    -5.6238  -5.4488  -5.4004  -5.3676  -5.3022   4.1691   9.4624   9.7032
    14.9408  18.7583  25.8659

          k = 0.0000 1.3333 0.0000 (  1580 PWs)   bands (ev):

    -5.7000  -5.5748  -5.3123  -5.3123  -5.3002   2.2921  11.2650  14.2103
    14.2103  18.1260  18.9957

          k =-0.3333-0.3333 0.3333 (  1540 PWs)   bands (ev):

    -5.5864  -5.5317  -5.5317  -5.3154  -5.3154   1.5754   9.7460  17.2082
    17.2082  20.8948  22.5624

          k =-0.6667 0.0000 0.0000 (  1580 PWs)   bands (ev):

    -5.7000  -5.5748  -5.3123  -5.3123  -5.3002   2.2921  11.2650  14.2103
    14.2103  18.1260  18.9957

          k =-1.0000 0.3333-0.3333 (  1568 PWs)   bands (ev):

    -5.6238  -5.4488  -5.4004  -5.3676  -5.3022   4.1691   9.4624   9.7032
    14.9408  18.7583  25.8659

          k = 0.0000 0.0000 0.6667 (  1580 PWs)   bands (ev):

    -5.7000  -5.5748  -5.3123  -5.3123  -5.3002   2.2921  11.2650  14.2103
    14.2103  18.1260  18.9957

          k =-0.3333 0.3333 0.3333 (  1540 PWs)   bands (ev):

    -5.5864  -5.5317  -5.5317  -5.3154  -5.3154   1.5754   9.7460  17.2082
    17.2082  20.8948  22.5624

          k =-0.6667 0.6667-0.0000 (  1568 PWs)   bands (ev):

    -5.6238  -5.4488  -5.4004  -5.3676  -5.3022   4.1691   9.4624   9.7032
    14.9408  18.7583  25.8659

          k = 0.3333 0.3333 1.0000 (  1568 PWs)   bands (ev):

    -5.6238  -5.4488  -5.4004  -5.3676  -5.3022   4.1691   9.4624   9.7032
    14.9408  18.7583  25.8659

          k = 0.0000 0.6667 0.6667 (  1568 PWs)   bands (ev):

    -5.6238  -5.4488  -5.4004  -5.3676  -5.3022   4.1691   9.4624   9.7032
    14.9408  18.7583  25.8659

          k =-0.3333 1.0000 0.3333 (  1568 PWs)   bands (ev):

    -5.6238  -5.4488  -5.4004  -5.3676  -5.3022   4.1691   9.4624   9.7032
    14.9408  18.7583  25.8659

          k =-0.6667-0.6667 0.6667 (  1540 PWs)   bands (ev):

    -5.5864  -5.5317  -5.5317  -5.3154  -5.3154   1.5754   9.7460  17.2082
    17.2082  20.8948  22.5624

          k =-1.0000-0.3333 0.3333 (  1568 PWs)   bands (ev):

    -5.6238  -5.4488  -5.4004  -5.3676  -5.3022   4.1691   9.4624   9.7032
    14.9408  18.7583  25.8659

          k =-1.3333 0.0000 0.0000 (  1580 PWs)   bands (ev):

    -5.7000  -5.5748  -5.3123  -5.3123  -5.3002   2.2921  11.2650  14.2103
    14.2103  18.1260  18.9957

          k =-0.3333-0.3333 1.0000 (  1568 PWs)   bands (ev):

    -5.6238  -5.4488  -5.4004  -5.3676  -5.3022   4.1691   9.4624   9.7032
    14.9408  18.7583  25.8659

          k =-0.6667-0.0000 0.6667 (  1568 PWs)   bands (ev):

    -5.6238  -5.4488  -5.4004  -5.3676  -5.3022   4.1691   9.4624   9.7032
    14.9408  18.7583  25.8659

          k =-1.0000 0.3333 0.3333 (  1568 PWs)   bands (ev):

    -5.6238  -5.4488  -5.4004  -5.3676  -5.3022   4.1691   9.4624   9.7032
    14.9408  18.7583  25.8659

          k = 0.0000 0.0000 1.3333 (  1580 PWs)   bands (ev):

    -5.7000  -5.5748  -5.3123  -5.3123  -5.3002   2.2921  11.2650  14.2103
    14.2103  18.1260  18.9957

          k =-0.3333 0.3333 1.0000 (  1568 PWs)   bands (ev):

    -5.6238  -5.4488  -5.4004  -5.3676  -5.3022   4.1691   9.4624   9.7032
    14.9408  18.7583  25.8659

          k =-0.6667 0.6667 0.6667 (  1540 PWs)   bands (ev):

    -5.5864  -5.5317  -5.5317  -5.3154  -5.3154   1.5754   9.7460  17.2082
    17.2082  20.8948  22.5624

     the Fermi energy is     9.7979 ev
     (compare with:     9.8187 eV, computed in scf)

     Writing all to output data dir ./pb.save/ :
     XML data file, pseudopotentials, collected wavefunctions

     init_run     :      0.26s CPU      0.26s WALL (       1 calls)
     electrons    :      1.42s CPU      1.49s WALL (       1 calls)

     Called by init_run:
     wfcinit      :      0.00s CPU      0.00s WALL (       1 calls)
     potinit      :      0.00s CPU      0.00s WALL (       1 calls)
     hinit0       :      0.24s CPU      0.25s WALL (       1 calls)

     Called by electrons:
     c_bands      :      1.42s CPU      1.49s WALL (       1 calls)
     v_of_rho     :      0.00s CPU      0.00s WALL (       1 calls)

     Called by c_bands:
     init_us_2    :      0.00s CPU      0.00s WALL (      27 calls)
     cegterg      :      1.33s CPU      1.39s WALL (      49 calls)

     Called by *egterg:
     cdiaghg      :      0.08s CPU      0.09s WALL (     856 calls)
     h_psi        :      1.17s CPU      1.23s WALL (     905 calls)
     g_psi        :      0.00s CPU      0.00s WALL (     829 calls)

     Called by h_psi:
     h_psi:calbec :      0.04s CPU      0.04s WALL (     905 calls)
     vloc_psi     :      1.12s CPU      1.17s WALL (     905 calls)
                                        0.00s GPU  (     905 calls)
     add_vuspsi   :      0.01s CPU      0.01s WALL (     905 calls)

     General routines
     calbec       :      0.04s CPU      0.04s WALL (     905 calls)
     fft          :      0.23s CPU      0.23s WALL (       3 calls)
     fftw         :      1.04s CPU      1.09s WALL (   10016 calls)
     davcio       :      0.00s CPU      0.00s WALL (      54 calls)

     Parallel routines

     PWSCF        :      1.81s CPU      1.98s WALL


   This run was terminated on:   1: 8: 8   4Oct2026            

=------------------------------------------------------------------------------=
   JOB DONE.
=------------------------------------------------------------------------------=
